1	1	1	1	3	5	0	0	0	0	0	0
2000	1	0	0	0	0	0	0	0	0	0	0
250	1	0	77.75	0.39	1	0	0	0	0	0	0
50	150	0	0	0	0	9999	0	0	99999	0	0
50	75	0	0	0	0	9999	0	0	99999	0	0
50	75	0	0	0	0	9999	0	0	0	0	0
57	82	0	0	0	0	9999	0	0	0	0	0
77	30	0	0	0	0	9999	0	0	0	0	0
41	37	16	14	2	484	1006	10	0	0	0	0
65	82	10	8	2	160	733	10	0	0	0	0
55	54	26	26	0	243	633	10	0	0	0	0
58	75	20	15	5	174	662	10	0	0	0	0
87	30	10	3	7	170	640	10	0	0	0	0

